0 3223
8 3220
10 3175
17 3143
31 3109
66 3080
76 3058
78 3054
80 3028
88 3022
101 3019
104 3005
111 3001
112 2955
119 2945
128 2926
143 2898
145 2884
147 2845
155 2825
172 2824
191 2794
238 2793
250 2772
290 2764
317 2761
512 2760
565 2758
712 2757
730 2752
2044 2748
2049 2746
2373 2740
3135 2729
891659 2725
891660 2724
